datasets/2-dimensional/CL_10_24_01.vbp
2
100 100 
24
49 47 30
47 34 72
27 46 4
21 46 88
46 40 54
30 44 64
30 43 90
43 11 26
43 32 94
43 41 28
35 43 72
29 42 49
42 39 54
31 40 19
40 28 28
39 26 61
38 20 84
36 25 23
32 36 67
35 33 53
26 28 54
18 23 16
15 20 9
5 13 54
