datasets/2-dimensional-benchmark/CL_10_24_01.txt
100 100 
0 30 49 47 
1 72 47 34 
2 4 27 46 
3 88 21 46 
4 54 46 40 
5 64 30 44 
6 90 30 43 
7 26 43 11 
8 94 43 32 
9 28 43 41 
10 72 35 43 
11 49 29 42 
12 54 42 39 
13 19 31 40 
14 28 40 28 
15 61 39 26 
16 84 38 20 
17 23 36 25 
18 67 32 36 
19 53 35 33 
20 54 26 28 
21 16 18 23 
22 9 15 20 
23 54 5 13 
